Geographic Exponential Decay
20 60 2 154 20 142 148 190 193 111 80 309 17 184 88 35 160 212 246 250 109
p edge 320 680
e 0 72 2.0
e 0 289 7.0
e 0 252 3.0
e 1 141 4.0
e 1 226 14.0
e 2 242 75.0
e 2 304 79.0
e 2 19 93.0
e 2 15 45.0
e 2 316 56.0
e 2 89 84.0
e 2 250 93.0
e 2 158 26.0
e 2 99 74.0
e 2 68 76.0
e 2 193 92.0
e 2 148 34.0
e 2 65 43.0
e 2 162 29.0
e 2 309 27.0
e 2 31 61.0
e 2 41 62.0
e 3 244 5.0
e 3 210 4.0
e 4 257 4.0
e 4 96 4.0
e 5 8 7.0
e 5 173 11.0
e 5 203 5.0
e 6 271 1.0
e 7 6 23.0
e 7 201 1.0
e 7 296 16.0
e 7 70 16.0
e 7 316 22.0
e 8 191 11.0
e 8 157 1.0
e 9 182 2.0
e 9 61 2.0
e 10 260 1.0
e 10 313 3.0
e 11 190 69.0
e 11 22 2.0
e 12 213 5.0
e 12 30 1.0
e 13 256 13.0
e 13 64 11.0
e 13 266 12.0
e 13 104 21.0
e 13 296 24.0
e 14 100 4.0
e 15 207 5.0
e 16 215 5.0
e 16 51 11.0
e 16 272 5.0
e 17 127 28.0
e 17 141 41.0
e 17 80 47.0
e 17 129 99.0
e 17 180 66.0
e 17 234 74.0
e 17 102 57.0
e 17 71 23.0
e 17 94 88.0
e 17 315 38.0
e 17 213 36.0
e 17 150 91.0
e 17 95 23.0
e 17 116 30.0
e 17 114 23.0
e 17 126 91.0
e 17 52 100.0
e 18 235 4.0
e 18 259 9.0
e 18 168 1.0
e 20 317 4.0
e 20 313 24.0
e 20 17 76.0
e 20 264 3.0
e 20 286 53.0
e 20 251 87.0
e 20 54 83.0
e 20 318 98.0
e 20 46 51.0
e 20 198 63.0
e 20 105 28.0
e 20 268 32.0
e 20 207 54.0
e 20 283 51.0
e 20 121 42.0
e 20 186 25.0
e 20 261 63.0
e 21 57 3.0
e 21 22 1.0
e 23 245 3.0
e 23 187 1.0
e 24 262 1.0
e 24 245 2.0
e 25 46 1.0
e 26 252 1.0
e 26 50 1.0
e 27 147 5.0
e 27 116 7.0
e 27 247 1.0
e 27 235 19.0
e 27 22 14.0
e 28 21 4.0
e 28 141 9.0
e 29 290 1.0
e 29 206 4.0
e 30 175 3.0
e 32 16 1.0
e 33 288 5.0
e 33 34 3.0
e 35 275 50.0
e 35 257 12.0
e 35 104 99.0
e 35 115 92.0
e 35 196 54.0
e 35 285 74.0
e 35 139 5.0
e 35 300 68.0
e 35 151 14.0
e 35 303 22.0
e 35 220 79.0
e 35 265 62.0
e 35 14 35.0
e 35 92 33.0
e 35 310 26.0
e 35 187 81.0
e 35 183 4.0
e 36 35 90.0
e 37 161 3.0
e 38 104 12.0
e 38 197 9.0
e 38 309 34.0
e 39 160 24.0
e 40 160 75.0
e 40 209 43.0
e 42 181 1.0
e 43 119 6.0
e 43 23 2.0
e 43 280 4.0
e 44 235 9.0
e 45 97 2.0
e 45 117 3.0
e 47 149 11.0
e 47 297 4.0
e 48 221 5.0
e 49 61 4.0
e 49 72 20.0
e 49 305 9.0
e 49 1 11.0
e 49 301 20.0
e 50 133 14.0
e 50 281 7.0
e 51 122 4.0
e 52 111 87.0
e 52 309 29.0
e 52 241 12.0
e 52 272 17.0
e 53 91 3.0
e 54 157 4.0
e 55 61 9.0
e 55 16 12.0
e 55 103 3.0
e 56 115 1.0
e 57 24 4.0
e 58 227 1.0
e 59 143 1.0
e 60 210 77.0
e 60 110 48.0
e 60 18 98.0
e 60 118 100.0
e 60 86 86.0
e 60 43 55.0
e 60 205 91.0
e 60 23 30.0
e 60 200 48.0
e 60 15 78.0
e 60 75 45.0
e 60 134 17.0
e 60 47 76.0
e 60 191 7.0
e 60 73 31.0
e 60 65 4.0
e 60 7 84.0
e 62 10 5.0
e 63 125 18.0
e 63 102 17.0
e 63 303 15.0
e 63 275 4.0
e 63 51 24.0
e 64 124 4.0
e 66 315 4.0
e 67 257 5.0
e 68 243 4.0
e 68 294 4.0
e 69 0 9.0
e 70 123 5.0
e 70 189 1.0
e 74 281 2.0
e 75 295 43.0
e 75 280 22.0
e 75 81 4.0
e 75 76 14.0
e 75 275 15.0
e 75 205 12.0
e 75 271 39.0
e 75 269 3.0
e 77 107 1.0
e 77 295 2.0
e 78 279 7.0
e 78 209 31.0
e 78 105 31.0
e 78 176 22.0
e 78 14 39.0
e 78 283 4.0
e 78 131 39.0
e 78 7 30.0
e 78 55 16.0
e 79 132 2.0
e 80 12 57.0
e 80 279 13.0
e 80 115 45.0
e 80 230 75.0
e 80 218 58.0
e 80 129 17.0
e 80 159 14.0
e 80 131 51.0
e 80 224 24.0
e 80 18 57.0
e 80 116 86.0
e 80 264 15.0
e 80 163 6.0
e 80 173 14.0
e 80 206 96.0
e 80 121 53.0
e 82 84 10.0
e 82 53 1.0
e 82 178 2.0
e 83 130 1.0
e 84 90 7.0
e 84 26 10.0
e 85 311 1.0
e 86 4 3.0
e 87 187 1.0
e 87 134 4.0
e 88 196 78.0
e 88 120 17.0
e 88 33 23.0
e 88 118 79.0
e 88 192 14.0
e 88 174 28.0
e 88 90 43.0
e 88 185 83.0
e 88 275 68.0
e 88 242 6.0
e 88 91 87.0
e 88 240 82.0
e 88 129 17.0
e 88 290 90.0
e 88 62 20.0
e 88 271 79.0
e 88 75 33.0
e 89 50 10.0
e 89 11 12.0
e 90 207 12.0
e 93 227 1.0
e 94 37 1.0
e 95 53 12.0
e 95 224 7.0
e 96 92 4.0
e 98 272 8.0
e 98 74 3.0
e 98 104 7.0
e 99 107 8.0
e 99 52 1.0
e 99 249 13.0
e 99 243 21.0
e 100 137 19.0
e 101 210 3.0
e 106 237 7.0
e 106 90 1.0
e 108 23 4.0
e 109 249 29.0
e 109 292 27.0
e 109 142 54.0
e 109 313 8.0
e 109 302 92.0
e 109 25 60.0
e 109 165 2.0
e 109 175 18.0
e 109 190 92.0
e 109 314 57.0
e 109 188 42.0
e 109 193 3.0
e 109 107 46.0
e 109 210 77.0
e 109 289 91.0
e 109 36 100.0
e 109 267 42.0
e 110 107 5.0
e 111 227 17.0
e 111 255 71.0
e 111 256 34.0
e 111 24 38.0
e 111 46 82.0
e 111 249 15.0
e 111 272 60.0
e 111 98 79.0
e 111 313 6.0
e 111 33 56.0
e 111 209 25.0
e 111 9 38.0
e 111 269 12.0
e 111 25 81.0
e 111 181 99.0
e 111 26 42.0
e 112 222 2.0
e 113 277 2.0
e 113 151 3.0
e 114 252 11.0
e 114 83 4.0
e 117 220 10.0
e 120 94 5.0
e 121 30 41.0
e 121 229 9.0
e 121 227 19.0
e 121 265 27.0
e 121 211 8.0
e 121 129 50.0
e 121 36 7.0
e 122 214 4.0
e 123 22 5.0
e 123 41 11.0
e 124 177 1.0
e 125 71 3.0
e 126 220 21.0
e 128 256 3.0
e 133 231 17.0
e 133 103 6.0
e 133 130 8.0
e 133 126 21.0
e 135 211 1.0
e 136 245 1.0
e 137 151 8.0
e 137 308 6.0
e 137 38 10.0
e 137 202 16.0
e 138 9 3.0
e 138 8 1.0
e 140 65 1.0
e 142 318 78.0
e 142 247 95.0
e 142 236 82.0
e 142 312 15.0
e 142 276 46.0
e 142 67 85.0
e 142 295 71.0
e 142 165 65.0
e 142 68 59.0
e 142 110 49.0
e 142 212 8.0
e 142 82 58.0
e 142 148 14.0
e 142 141 41.0
e 142 267 70.0
e 142 98 69.0
e 144 167 2.0
e 144 44 4.0
e 145 196 8.0
e 145 202 7.0
e 145 50 4.0
e 146 255 13.0
e 147 55 2.0
e 147 265 1.0
e 148 223 84.0
e 148 261 45.0
e 148 213 100.0
e 148 137 3.0
e 148 143 28.0
e 148 304 27.0
e 148 305 61.0
e 148 295 6.0
e 148 44 22.0
e 148 163 92.0
e 148 202 16.0
e 148 254 3.0
e 148 317 70.0
e 148 26 7.0
e 148 284 43.0
e 149 19 10.0
e 149 60 38.0
e 150 172 2.0
e 150 306 17.0
e 150 247 9.0
e 150 266 22.0
e 152 303 8.0
e 152 132 40.0
e 152 176 45.0
e 152 301 13.0
e 152 128 50.0
e 152 302 11.0
e 152 278 41.0
e 152 141 32.0
e 152 33 5.0
e 153 232 2.0
e 153 0 8.0
e 154 59 25.0
e 154 260 83.0
e 154 64 43.0
e 154 273 57.0
e 154 112 51.0
e 154 122 75.0
e 154 160 76.0
e 154 252 53.0
e 154 226 73.0
e 154 195 97.0
e 154 156 19.0
e 154 285 65.0
e 154 54 95.0
e 154 35 75.0
e 154 196 70.0
e 154 28 95.0
e 154 316 80.0
e 155 233 5.0
e 155 130 3.0
e 156 311 4.0
e 159 69 7.0
e 159 92 6.0
e 160 294 83.0
e 160 20 40.0
e 160 2 69.0
e 160 167 24.0
e 160 10 66.0
e 160 103 20.0
e 160 210 100.0
e 160 198 35.0
e 160 182 46.0
e 160 211 70.0
e 160 99 36.0
e 160 148 10.0
e 160 89 59.0
e 160 118 23.0
e 161 176 3.0
e 161 268 8.0
e 162 97 5.0
e 162 293 8.0
e 163 28 5.0
e 164 256 3.0
e 164 111 85.0
e 165 162 8.0
e 166 218 5.0
e 169 225 3.0
e 169 276 1.0
e 170 218 7.0
e 170 316 4.0
e 171 24 5.0
e 171 271 4.0
e 172 239 4.0
e 177 173 4.0
e 178 15 1.0
e 179 243 1.0
e 180 240 24.0
e 182 3 17.0
e 182 236 1.0
e 182 130 14.0
e 183 6 1.0
e 183 266 6.0
e 184 214 73.0
e 184 207 69.0
e 184 261 6.0
e 184 140 77.0
e 184 260 95.0
e 184 154 11.0
e 184 297 5.0
e 184 279 84.0
e 184 5 67.0
e 184 80 72.0
e 184 107 68.0
e 184 123 78.0
e 184 202 68.0
e 184 27 10.0
e 184 182 5.0
e 184 192 75.0
e 184 150 50.0
e 188 143 6.0
e 189 281 2.0
e 190 195 82.0
e 190 41 77.0
e 190 186 9.0
e 190 115 12.0
e 190 221 26.0
e 190 192 97.0
e 190 173 83.0
e 190 184 9.0
e 190 300 77.0
e 190 233 53.0
e 190 279 72.0
e 190 12 79.0
e 190 127 6.0
e 190 7 74.0
e 190 57 20.0
e 193 191 6.0
e 193 155 19.0
e 193 3 67.0
e 193 82 14.0
e 193 314 25.0
e 193 111 22.0
e 193 292 53.0
e 193 220 43.0
e 193 71 55.0
e 193 202 48.0
e 193 169 78.0
e 193 64 14.0
e 193 241 57.0
e 193 274 85.0
e 193 245 39.0
e 194 159 3.0
e 195 204 6.0
e 197 131 3.0
e 197 169 6.0
e 198 38 3.0
e 199 246 34.0
e 201 105 2.0
e 201 108 8.0
e 203 141 7.0
e 204 111 84.0
e 208 70 1.0
e 209 158 1.0
e 209 164 1.0
e 209 178 19.0
e 209 255 40.0
e 209 16 38.0
e 209 235 7.0
e 212 213 82.0
e 212 276 44.0
e 212 250 59.0
e 212 223 79.0
e 212 128 2.0
e 212 274 85.0
e 212 147 94.0
e 212 234 78.0
e 212 18 76.0
e 212 285 93.0
e 212 119 35.0
e 212 190 51.0
e 212 38 71.0
e 212 76 2.0
e 212 208 16.0
e 212 110 30.0
e 215 55 11.0
e 216 150 4.0
e 216 217 5.0
e 216 29 2.0
e 217 52 11.0
e 217 234 1.0
e 219 270 6.0
e 219 284 1.0
e 219 4 3.0
e 220 317 11.0
e 221 209 37.0
e 224 30 11.0
e 225 276 2.0
e 225 122 7.0
e 226 123 1.0
e 226 90 5.0
e 226 303 15.0
e 228 220 6.0
e 228 50 10.0
e 230 282 3.0
e 230 162 4.0
e 230 206 17.0
e 230 137 4.0
e 233 164 7.0
e 237 247 9.0
e 237 93 23.0
e 237 167 7.0
e 237 6 10.0
e 238 304 13.0
e 238 25 12.0
e 238 169 19.0
e 238 241 2.0
e 238 71 17.0
e 239 277 2.0
e 240 27 50.0
e 240 147 19.0
e 240 243 13.0
e 240 162 45.0
e 240 112 15.0
e 240 174 25.0
e 240 219 50.0
e 241 231 9.0
e 241 197 8.0
e 242 315 1.0
e 242 90 16.0
e 242 73 10.0
e 246 142 48.0
e 246 93 65.0
e 246 112 70.0
e 246 258 39.0
e 246 164 76.0
e 246 185 77.0
e 246 289 86.0
e 246 143 16.0
e 246 266 36.0
e 246 171 83.0
e 246 152 64.0
e 246 45 43.0
e 246 274 29.0
e 246 197 62.0
e 246 200 28.0
e 246 163 58.0
e 248 20 64.0
e 248 299 8.0
e 248 116 1.0
e 250 282 60.0
e 250 242 74.0
e 250 247 2.0
e 250 257 63.0
e 250 258 85.0
e 250 248 34.0
e 250 198 8.0
e 250 51 55.0
e 250 161 76.0
e 250 60 43.0
e 250 217 83.0
e 250 105 84.0
e 250 66 43.0
e 250 237 64.0
e 250 279 92.0
e 251 131 7.0
e 251 267 1.0
e 253 144 5.0
e 254 2 64.0
e 255 302 2.0
e 255 34 16.0
e 258 151 1.0
e 259 193 17.0
e 262 163 6.0
e 263 113 4.0
e 263 273 10.0
e 263 234 7.0
e 270 260 9.0
e 270 184 92.0
e 280 110 10.0
e 287 5 2.0
e 291 148 88.0
e 291 167 11.0
e 291 280 1.0
e 292 201 9.0
e 298 99 1.0
e 298 95 8.0
e 300 199 8.0
e 301 39 5.0
e 302 1 13.0
e 302 287 17.0
e 306 106 7.0
e 306 149 7.0
e 307 280 7.0
e 309 205 74.0
e 309 43 100.0
e 309 113 31.0
e 309 8 98.0
e 309 10 11.0
e 309 214 6.0
e 309 195 70.0
e 309 230 93.0
e 309 179 59.0
e 309 188 92.0
e 309 81 38.0
e 309 144 91.0
e 309 9 28.0
e 309 11 55.0
e 312 44 10.0
e 312 133 1.0
e 318 65 2.0
e 319 311 4.0
e 319 225 11.0
